22 3
6 6 6
0 0 0 0 20 2 3 4 5 6 7 8 9 10 11 12 13 14 15 16 17 18 19 20 21
4 0 3 1 2 22 4
1 0 1 3 2 22 20
1 1 2 2 3 22 14 12
2 3 3 0 3 22 8 11
2 3 0 1 2 22 16
5 3 2 1 2 22 10
1 1 1 1 1 22
3 1 2 0 4 22 19 20 20
2 0 2 0 2 22 12
4 2 0 0 1 22
1 1 1 3 2 22 14
3 1 0 0 2 22 17
3 1 3 2 1 22
1 0 0 2 1 22
4 2 2 0 1 22
2 2 3 0 1 22
3 2 0 2 2 22 19
3 3 3 2 1 22
5 2 0 1 1 22
4 2 2 1 1 22
0 0 0 0 0
